db/data/8256213912098232634111742333690171558.z3.out
unsat
-------------------
66.805862817
